tsp_instances/TSP20/instance114.tsp
NODE_COORD_SECTION
0 114 68
1 146 157
2 48 74
3 0 169
4 76 82
5 63 51
6 188 133
7 137 146
8 137 61
9 183 52
10 177 66
11 39 7
12 178 77
13 167 171
14 176 56
15 103 195
16 5 174
17 153 25
18 189 108
19 112 116
