tsp_instances/TSP20/instance114.opt.tour
TOUR_SECTION
1
9
18
10
15
11
13
19
7
14
2
8
16
17
4
3
12
6
5
20
-1